SPARKNaCl/why3-z3/sparknacl-aes.adb_569_29_range_check3_1.smt2
;; produced by z3_gnatprove.drv ;;
(set-info :smt-lib-version 2.5)
(set-info :source |VC generated by SPARK 2014|)
(set-info :category industrial)
(set-info :status unknown)
;;; generated by SMT-LIB2 driver
;;; SMT-LIB2 driver: bit-vectors, common part
;;; SMT-LIB2: integer arithmetic
(declare-datatypes ()
  ((int__ref (int__refqtmk (int__content Int)))))

(declare-sort u32 0)

;; "to_rep"
(declare-fun to_rep (u32) (_ BitVec 32))

;; "of_rep"
(declare-fun of_rep ((_ BitVec 32)) u32)

;; "inversion_axiom"
(assert
  (forall ((x u32)) (! (= (of_rep (to_rep x)) x) :pattern ((to_rep x)) )))

;; "range_axiom"
(assert true)

;; "coerce_axiom"
(assert
  (forall ((x (_ BitVec 32)))
    (! (= (to_rep (of_rep x)) x) :pattern ((to_rep (of_rep x))) )))

(declare-sort map1 0)

;; "has_bounds"
(declare-fun has_bounds (map1
  Int
  Int) Bool)

(declare-datatypes ()
  ((us_split_fields
   (us_split_fieldsqtmk (rec__ada___sparknacl__aes__aes256_key__f map1)))))

(declare-datatypes ()
  ((us_rep (us_repqtmk (us_split_fields1 us_split_fields)))))

;; "dynamic_invariant"
(define-fun dynamic_invariant ((temp___expr_376 us_rep) (temp___is_init_372 Bool) (temp___skip_constant_373 Bool) (temp___do_toplevel_374 Bool) (temp___do_typ_inv_375 Bool)) Bool
  (has_bounds
    (rec__ada___sparknacl__aes__aes256_key__f
      (us_split_fields1 temp___expr_376))
    0
    7))

(declare-const key us_rep)

(declare-sort byte 0)

(declare-sort map2 0)

(declare-datatypes ()
  ((map__ref (map__refqtmk (map__content map2)))))

;; "has_bounds"
(declare-fun has_bounds1 (map2
  Int
  Int) Bool)

;; "to_rep"
(declare-fun to_rep1 (byte) (_ BitVec 8))

;; "of_rep"
(declare-fun of_rep1 ((_ BitVec 8)) byte)

;; "inversion_axiom"
(assert
  (forall ((x byte)) (! (= (of_rep1 (to_rep1 x)) x) :pattern ((to_rep1 x)) )))

;; "range_axiom"
(assert true)

;; "coerce_axiom"
(assert
  (forall ((x (_ BitVec 8)))
    (! (= (to_rep1 (of_rep1 x)) x) :pattern ((to_rep1 (of_rep1 x))) )))

(declare-sort tinteger_32B 0)

;; "tinteger_32B'int"
(declare-fun tinteger_32Bqtint (tinteger_32B) Int)

;; "tinteger_32B'axiom"
(assert
  (forall ((i tinteger_32B))
    (and
      (<= (- 2147483648) (tinteger_32Bqtint i))
      (<= (tinteger_32Bqtint i) 2147483647))))

;; "in_range"
(define-fun in_range ((x Int)) Bool
  (and (<= (- 2147483648) x) (<= x 2147483647)))

;; "to_rep"
(define-fun to_rep2 ((x tinteger_32B)) Int
  (tinteger_32Bqtint x))

;; "of_rep"
(declare-fun of_rep2 (Int) tinteger_32B)

;; "inversion_axiom"
(assert
  (forall ((x tinteger_32B))
    (! (= (of_rep2 (to_rep2 x)) x) :pattern ((to_rep2 x)) )))

;; "range_axiom"
(assert
  (forall ((x tinteger_32B))
    (! (in_range (to_rep2 x)) :pattern ((to_rep2 x)) )))

;; "coerce_axiom"
(assert
  (forall ((x Int))
    (! (=> (in_range x) (= (to_rep2 (of_rep2 x)) x)) :pattern ((to_rep2
                                                                 (of_rep2 x))) )))

(declare-const result__ map2)

;; "result__'unused"
(define-fun result__qtunused () map__ref
  (map__refqtmk result__))

;; "Assume"
(assert (dynamic_invariant key true false true true))

;; "Assume"
(assert (has_bounds1 result__ 0 31))

(declare-const i Int)

;; "i'unused"
(define-fun iqtunused () int__ref
  (int__refqtmk i))

;; "H"
(assert (= i 0))

;; "int__content'result'unused"
(define-fun int__contentqtresultqtunused () Int
  i)

;; "o"
(define-fun o () Bool
  (ite (<= i 7) true false))

;; "infix <='result'unused"
(define-fun infix_lseqqtresultqtunused () Bool
  o)

;; "int__content'result'unused"
(define-fun int__contentqtresultqtunused1 () Int
  i)

;; "o"
(define-fun o1 () Bool
  (ite (<= 0 i) true false))

;; "infix <='result'unused"
(define-fun infix_lseqqtresultqtunused1 () Bool
  o1)

;; "o"
(define-fun o2 () Bool
  (and o1 o))

;; "andb'result'unused"
(define-fun andbqtresultqtunused () Bool
  o2)

;; "H"
(assert (= o2 true))

;; "temp___loop_entry_1044'unused"
(define-fun temp___loop_entry_1044qtunused () map2
  result__)

;; "map__content'result'unused"
(define-fun map__contentqtresultqtunused () map2
  result__)

;; "int__content'result'unused"
(define-fun int__contentqtresultqtunused2 () Int
  i)

;; "o"
(define-fun o3 () Int
  (* 4 i))

;; "infix *'result'unused"
(define-fun infix_asqtresultqtunused () Int
  o3)

;; "temp___1030"
(define-fun temp___1030 () Int
  (+ o3 3))

;; "infix +'result'unused"
(define-fun infix_plqtresultqtunused () Int
  temp___1030)

;; "int__content'result'unused"
(define-fun int__contentqtresultqtunused3 () Int
  i)

;; "temp___1029"
(define-fun temp___1029 () Int
  (* 4 i))

;; "infix *'result'unused"
(define-fun infix_asqtresultqtunused1 () Int
  temp___1029)

;; "map__content'result'unused"
(define-fun map__contentqtresultqtunused1 () map2
  result__)

;; "H"
(assert (<= temp___1029 temp___1030))

;; Goal "def'vc"
;; File "sparknacl-aes.ads", line 33, characters 0-0
(assert
  (not (<= 0 temp___1030)))

(check-sat)
